feasible solution found by trivial heuristic after 0.1 seconds, objective value 0.000000e+00
presolving:
(round 1, fast)       11166 del vars, 0 del conss, 0 add conss, 0 chg bounds, 0 chg sides, 0 chg coeffs, 0 upgd conss, 0 impls, 11166 clqs
   (0.2s) running MILP presolver
   (0.7s) MILP presolver (2 rounds): 0 aggregations, 4489 fixings, 0 bound changes
(round 2, medium)     15655 del vars, 20144 del conss, 15655 add conss, 0 chg bounds, 0 chg sides, 0 chg coeffs, 0 upgd conss, 0 impls, 11166 clqs
(round 3, exhaustive) 15655 del vars, 20560 del conss, 15655 add conss, 0 chg bounds, 0 chg sides, 0 chg coeffs, 0 upgd conss, 0 impls, 15239 clqs
(round 4, exhaustive) 15655 del vars, 20560 del conss, 15655 add conss, 0 chg bounds, 0 chg sides, 0 chg coeffs, 15239 upgd conss, 0 impls, 15239 clqs
   (1.0s) probing: 51/162 (31.5%) - 0 fixings, 0 aggregations, 0 implications, 0 bound changes
   (1.0s) probing aborted: 50/50 successive totally useless probings
   (1.1s) symmetry computation started: requiring (bin +, int -, cont +), (fixed: bin -, int +, cont -)
   (1.1s) no symmetry present
presolving (5 rounds: 5 fast, 4 medium, 3 exhaustive):
 15655 deleted vars, 20560 deleted constraints, 15655 added constraints, 0 tightened bounds, 0 added holes, 0 changed sides, 0 changed coefficients
 0 implications, 15239 cliques
presolved problem has 162 variables (162 bin, 0 int, 0 impl, 0 cont) and 15239 constraints
  15239 constraints of type <setppc>
Presolving Time: 1.09

 time | node  | left  |LP iter|LP it/n|mem/heur|mdpt |vars |cons |rows |cuts |sepa|confs|strbr|  dualbound   | primalbound  |  gap   | compl. 
t 1.2s|     1 |     0 |     0 |     - | trivial|   0 | 162 |  15k|   0 |   0 |  0 |   0 |   0 | 2.713922e+06 | 2.697459e+06 |   0.61%| unknown
p 1.2s|     1 |     0 |     0 |     - |  clique|   0 | 162 |  15k|  15k|   0 |  0 |   0 |   0 | 2.713922e+06 | 2.699160e+06 |   0.55%| unknown
  2.0s|     1 |     0 |  1421 |     - |   124M |   0 | 162 |  15k|  15k|   0 |  0 |   0 |   0 | 2.700542e+06 | 2.699160e+06 |   0.05%| unknown
  2.1s|     1 |     0 |  1588 |     - |   127M |   0 | 162 |  15k|  15k|   1 |  1 |   0 |   0 | 2.700535e+06 | 2.699160e+06 |   0.05%| unknown
  2.2s|     1 |     0 |  1776 |     - |   130M |   0 | 162 |  15k|  15k|   2 |  2 |   0 |   0 | 2.700529e+06 | 2.699160e+06 |   0.05%| unknown
  2.4s|     1 |     0 |  1933 |     - |   133M |   0 | 162 |  15k|  15k|   3 |  3 |   0 |   0 | 2.700525e+06 | 2.699160e+06 |   0.05%| unknown
  2.5s|     1 |     0 |  2214 |     - |   135M |   0 | 162 |  15k|  15k|   4 |  4 |   0 |   0 | 2.700522e+06 | 2.699160e+06 |   0.05%| unknown
  2.7s|     1 |     0 |  2374 |     - |   138M |   0 | 162 |  15k|  15k|   5 |  5 |   0 |   0 | 2.700520e+06 | 2.699160e+06 |   0.05%| unknown
  2.8s|     1 |     0 |  2497 |     - |   141M |   0 | 162 |  15k|  15k|   6 |  6 |   0 |   0 | 2.700520e+06 | 2.699160e+06 |   0.05%| unknown
  2.9s|     1 |     0 |  2705 |     - |   144M |   0 | 162 |  15k|  15k|   7 |  7 |   0 |   0 | 2.700519e+06 | 2.699160e+06 |   0.05%| unknown
  3.1s|     1 |     0 |  2892 |     - |   145M |   0 | 162 |  15k|  15k|   8 |  8 |   0 |   0 | 2.700519e+06 | 2.699160e+06 |   0.05%| unknown
  3.2s|     1 |     0 |  3080 |     - |   148M |   0 | 162 |  15k|  15k|   9 |  9 |   0 |   0 | 2.700518e+06 | 2.699160e+06 |   0.05%| unknown
  3.3s|     1 |     0 |  3181 |     - |   151M |   0 | 162 |  15k|  15k|  10 | 10 |   0 |   0 | 2.700518e+06 | 2.699160e+06 |   0.05%| unknown
  3.4s|     1 |     0 |  3268 |     - |   152M |   0 | 162 |  15k|  15k|  11 | 11 |   0 |   0 | 2.700518e+06 | 2.699160e+06 |   0.05%| unknown
  3.5s|     1 |     0 |  3297 |     - |   154M |   0 | 162 |  15k|  15k|  12 | 12 |   0 |   0 | 2.700518e+06 | 2.699160e+06 |   0.05%| unknown
 time | node  | left  |LP iter|LP it/n|mem/heur|mdpt |vars |cons |rows |cuts |sepa|confs|strbr|  dualbound   | primalbound  |  gap   | compl. 
  3.5s|     1 |     0 |  3360 |     - |   155M |   0 | 162 |  15k|  15k|  13 | 13 |   0 |   0 | 2.700518e+06 | 2.699160e+06 |   0.05%| unknown
  3.6s|     1 |     0 |  3429 |     - |   157M |   0 | 162 |  15k|  15k|  14 | 14 |   0 |   0 | 2.700518e+06 | 2.699160e+06 |   0.05%| unknown
  3.7s|     1 |     0 |  3457 |     - |   158M |   0 | 162 |  15k|  15k|  15 | 15 |   0 |   0 | 2.700518e+06 | 2.699160e+06 |   0.05%| unknown
  3.7s|     1 |     0 |  3492 |     - |   160M |   0 | 162 |  15k|  15k|  16 | 16 |   0 |   0 | 2.700518e+06 | 2.699160e+06 |   0.05%| unknown
  3.8s|     1 |     0 |  3527 |     - |   162M |   0 | 162 |  15k|  15k|  17 | 17 |   0 |   0 | 2.700518e+06 | 2.699160e+06 |   0.05%| unknown
  3.9s|     1 |     0 |  3535 |     - |   163M |   0 | 162 |  15k|  15k|  18 | 18 |   0 |   0 | 2.700518e+06 | 2.699160e+06 |   0.05%| unknown
d 4.6s|     1 |     0 |  4947 |     - |farkasdi|   0 | 162 |  15k|  15k|   0 | 18 |   0 |   0 | 2.700518e+06 | 2.699391e+06 |   0.04%| unknown
  4.7s|     1 |     0 |  4947 |     - |   164M |   0 | 162 |  15k|  15k|  18 | 18 |   0 |   0 | 2.700518e+06 | 2.699391e+06 |   0.04%| unknown
  4.8s|     1 |     0 |  4965 |     - |   165M |   0 | 162 |  15k|  15k|  19 | 19 |   0 |   0 | 2.700518e+06 | 2.699391e+06 |   0.04%| unknown
  4.9s|     1 |     0 |  5051 |     - |   165M |   0 | 162 |  15k|  15k|  21 | 20 |   0 |   0 | 2.700518e+06 | 2.699391e+06 |   0.04%| unknown
 19.4s|     1 |     2 |  5051 |     - |   166M |   0 | 162 |  15k|  15k|  21 | 20 |   0 |  30 | 2.700494e+06 | 2.699391e+06 |   0.04%| unknown
*26.7s|     3 |     2 |  6340 |1364.0 |strongbr|   2 | 162 |  15k|  15k|  21 |  1 |   0 |  68 | 2.700494e+06 | 2.699446e+06 |   0.04%| unknown
*27.1s|     3 |     2 |  6424 |1406.0 |strongbr|   2 | 162 |  15k|  15k|  21 |  2 |   1 |  74 | 2.700494e+06 | 2.699523e+06 |   0.04%| unknown
*40.7s|     8 |     1 |  8664 | 721.7 |strongbr|   4 | 162 |  15k|  15k|  21 |  1 |  10 | 197 | 2.700494e+06 | 2.699562e+06 |   0.03%|  28.43%
*63.6s|    17 |     4 | 11828 | 513.5 |    LP  |   6 | 162 |  15k|  15k|  21 |  1 |  24 | 351 | 2.700452e+06 | 2.699573e+06 |   0.03%|  86.23%
 time | node  | left  |LP iter|LP it/n|mem/heur|mdpt |vars |cons |rows |cuts |sepa|confs|strbr|  dualbound   | primalbound  |  gap   | compl. 
*69.0s|    33 |     6 | 14814 | 350.1 |    LP  |   7 | 162 |  15k|  15k|  21 |  1 |  24 | 367 | 2.700417e+06 | 2.699715e+06 |   0.03%|  90.81%
*69.6s|    47 |     6 | 16345 | 276.8 |    LP  |   9 | 162 |  15k|  15k|  21 |  1 |  24 | 367 | 2.700396e+06 | 2.699793e+06 |   0.02%|  92.25%
 74.2s|   100 |     5 | 26133 | 227.5 |   179M |  15 | 162 |  15k|  15k|  43 |  1 |  24 | 367 | 2.700264e+06 | 2.699793e+06 |   0.02%|  94.19%

SCIP Status        : problem is solved [optimal solution found]
Solving Time (sec) : 80.86
Solving Nodes      : 145
Primal Bound       : +2.69979292853919e+06 (185 solutions)
Dual Bound         : +2.69979292853919e+06
Gap                : 0.00 %
Solve Status: optimal
Solve Time: 80.87 seconds
